c teste7
c
c UNSAT por causa do 1
c
p cnf 30 61
1 0
-1 -2 0
-1 -3 0
2 -3 0
-2 3 0
4 5 6 0
-4 -5 0
-4 -6 0
5 -6 0
-5 6 0
7 8 9 0
-7 -8 0
-7 -9 0
8 -9 0
-8 9 0
10 11 12 0
-10 -11 0
-10 -12 0
-11 12 0
-11 -12 0
13 -14 15 0
-13 -14 0
-13 -15 0
14 15 0
-14 15 0
16 17 18 0
-16 -17 0
-16 -18 0
17 -18 0
-17 18 0
19 20 21 0
-19 -20 0
-19 -21 0
20 -21 0
-20 21 0
22 23 24 0
-22 -23 0
-22 -24 0
23 -24 0
-23 24 0
25 26 27 0
-25 -26 0
-25 -27 0
26 -27 0
-26 27 0
28 29 30 0
-28 -29 0
-28 -30 0
29 -30 0
-29 30 0
-1 -4 -7 -10 -13 16 0
2 -5 -8 -11 -14 -17 0
3 -6 -9 -12 -15 -18 0
-19 -22 -25 28 0
-20 23 26 -29 0
-1 0
